(set-info :Origin "This instance was generated by: BanditFuzz-- an RL fuzzer for SMT solvers" )
(set-info :Author "Joe Scott, Fed Mora, Vijay Ganesh" )
(set-info :Contact "Joe Scott, joseph.scott@uwaterloo.ca")
(set-logic QF_BV)
(declare-const bool_0 Bool)
(declare-const bool_1 Bool)
(declare-const bool_2 Bool)
(declare-const bool_3 Bool)
(declare-const bool_4 Bool)
(declare-const bv_0 (_ BitVec 32))
(declare-const bv_1 (_ BitVec 32))
(declare-const bv_2 (_ BitVec 32))
(declare-const bv_3 (_ BitVec 32))
(declare-const bv_4 (_ BitVec 32))
(assert (and (bvule (bvnor bv_4 #x45c56e09 ) (bvnor #x1ab966bb  #xec2895a7 )) (bvslt (bvnor bv_4 #x0852bae1 ) (bvmul bv_0 #x6d895ff8 ))))
(assert (=> (=> (xor true bool_2) (bvsge #xe5f5f308  #xfba5fa02 )) (bvsge (bvxnor #x5d9bc8ad  #x110e82d6 ) (bvurem bv_0 bv_3))))
(assert (bvsge (bvnand (bvsub #xd1e8a30b  bv_0) (bvsub bv_0 bv_1)) (bvashr (bvor bv_1 bv_2) (bvlshr #xd9da10d5  #x0170ac16 ))))
(assert (bvuge (bvurem (bvor #x76cbe7d6  #xa7976c89 ) (bvnand #x5cdcc254  bv_3)) (bvlshr (bvlshr #x1f17611e  bv_0) (bvsrem bv_2 bv_4))))
(assert (bvule (bvsmod (bvmul #x79ee7e68  bv_3) (bvxnor bv_4 #xaf161eec )) (bvlshr (bvxnor #xe8ea243b  bv_4) (bvand bv_3 bv_4))))
(check-sat)
(exit)
